n=40;
t=40;
profit=[10  8  5  9  5  8  5  7  4  3  4  9  6  2  5  2  1  3  2  5  5  1  8  1  2  2  4  4  5  1  1  4  5  6  9  7  6  5  5  6];
length=[2  20  13  19  9  36  6  17  16  32  38  23  6  33  12  15  38  38  9  16  17  9  24  10  25  12  35  1  5  22  4  24  1  13  22  25  38  12  2  18];
min_deliver=[9  11  16  33  2  32  38  17  4  16  29  19  3  21  18  12  34  22  17  21  22  11  10  8  1  19  10  13  2  29  16  30  3  15  27  12  4  12  20  5];
max_deliver=[32  30  28  36  26  37  40  32  35  39  40  28  9  38  38  26  38  39  30  39  36  28  29  17  38  26  38  17  19  32  29  37  12  23  32  38  39  27  23  22];
surface=[5  10  12  1  14  3  10  15  15  13  13  12  15  9  13  11  6  6  11  5  2  4  11  4  14  12  13  11  1  9  11  5  2  1  1  9  4  1  10  5];
surface_capacity=15;
